61 60 
87 93 
22 78 
47 99 
53 40 
32 11 
86 69 
16 92 
70 67 
59 19 
51 80 
1 20 
76 67 
24 58 
23 81 
41 84 
41 29 
29 16 
59 29 
67 13 
69 0 
24 55 
69 92 
48 91 
12 59 
62 15 
39 15 
87 16 
34 12 
26 57 
93 19 
41 87 
48 23 
3 8 
52 22 
73 21 
22 97 
28 44 
89 28 
35 53 
88 50 
68 79 
65 56 
47 0 
68 25 
57 13 
45 51 
0 93 
26 55 
53 78 
